(set-logic QF_S)
(set-option :parse-transducers true)
(set-option :produce-models true)
(define-fun-rec toLower ((x String) (y String)) Bool
   (or (and (= x "") (= y ""))
       (and (not (= x "")) (not (= y ""))
           (= (char.code (str.head y))
               (ite (and (<= 65 (char.code (str.head x)))
                       (<= (char.code (str.head x)) 90))
                   (+ (char.code (str.head x)) 32)
                   (char.code (str.head x))))
           (toLower (str.tail x) (str.tail y))))
)
(declare-fun sym205 () String)
(declare-fun sym403 () String)
(declare-fun sym327 () String)
(declare-fun sym605 () String)
(declare-fun sym649 () String)
(declare-fun sym729 () String)
(declare-fun sym561 () String)
(declare-fun sym685 () String)
(declare-fun sym443 () String)
(declare-fun sym367 () String)
(declare-fun sym489 () String)
(declare-fun sym523 () String)
(declare-fun sym160 () String)
(declare-fun sym459 () String)
(declare-fun sym739 () String)
(declare-fun sym619 () String)
(declare-fun sym571 () String)
(declare-fun sym175 () String)
(declare-fun sym254 () String)
(declare-fun sym695 () String)
(declare-fun sym377 () String)
(declare-fun sym135 () String)
(declare-fun sym499 () String)
(declare-fun sym533 () String)
(declare-fun sym215 () String)
(declare-fun sym413 () String)
(declare-fun sym293 () String)
(declare-fun sym20 () String)
(declare-fun sym469 () String)
(declare-fun sym547 () String)
(declare-fun sym705 () String)
(declare-fun sym629 () String)
(declare-fun sym342 () String)
(declare-fun sym585 () String)
(declare-fun sym387 () String)
(declare-fun sym268 () String)
(declare-fun sym423 () String)
(declare-fun sym665 () String)
(declare-fun sym225 () String)
(declare-fun sym303 () String)
(declare-fun sym185 () String)
(declare-fun sym719 () String)
(declare-fun sym513 () String)
(declare-fun sym239 () String)
(declare-fun sym639 () String)
(declare-fun sym352 () String)
(declare-fun sym595 () String)
(declare-fun sym113 () String)
(declare-fun sym278 () String)
(declare-fun sym675 () String)
(declare-fun sym433 () String)
(declare-fun sym313 () String)
(declare-fun sym479 () String)
(declare-fun sym150 () String)
(declare-fun sym195 () String)
(declare-fun L27  () String)
(declare-fun L39  () String)
(declare-fun L19  () String)
(declare-fun L23  () String)
(declare-fun L106  () String)
(declare-fun L35  () String)
(declare-fun L47  () String)
(declare-fun L15  () String)
(declare-fun L7  () String)
(declare-fun L31  () String)
(declare-fun L43  () String)
(declare-fun L11  () String)
(declare-fun L55  () String)
(declare-fun L3  () String)
(declare-fun L51  () String)
(declare-fun L102  () String)
(declare-fun L18  () String)
(declare-fun L78  () String)
(declare-fun L74  () String)
(declare-fun L8  () String)
(declare-fun L86  () String)
(declare-fun L10  () String)
(declare-fun L98  () String)
(declare-fun L66  () String)
(declare-fun L70  () String)
(declare-fun L4  () String)
(declare-fun L82  () String)
(declare-fun L94  () String)
(declare-fun L62  () String)
(declare-fun L0  () String)
(declare-fun L90  () String)
(declare-fun L49  () String)
(declare-fun L17  () String)
(declare-fun L29  () String)
(declare-fun L45  () String)
(declare-fun L13  () String)
(declare-fun L57  () String)
(declare-fun L25  () String)
(declare-fun L69  () String)
(declare-fun L104  () String)
(declare-fun L37  () String)
(declare-fun L41  () String)
(declare-fun L53  () String)
(declare-fun L21  () String)
(declare-fun L108  () String)
(declare-fun L33  () String)
(declare-fun L1  () String)
(declare-fun L100  () String)
(declare-fun L68  () String)
(declare-fun L36  () String)
(declare-fun L96  () String)
(declare-fun L64  () String)
(declare-fun L32  () String)
(declare-fun L76  () String)
(declare-fun L6  () String)
(declare-fun L44  () String)
(declare-fun L88  () String)
(declare-fun L92  () String)
(declare-fun L60  () String)
(declare-fun L72  () String)
(declare-fun L2  () String)
(declare-fun L84  () String)
(declare-fun L80  () String)
(assert (toLower sym195  L80 ))
(assert (toLower sym649  L84 ))
(assert (toLower sym254  L2 ))
(assert (toLower sym595  L72 ))
(assert (toLower sym729  L60 ))
(assert (toLower sym739  L92 ))
(assert (toLower sym413  L88 ))
(assert (toLower "length"  L44 ))
(assert (toLower sym639  L6 ))
(assert (toLower sym205  L76 ))
(assert (toLower "option"  L32 ))
(assert (toLower sym695  L64 ))
(assert (toLower sym303  L96 ))
(assert (toLower "field"  L36 ))
(assert (toLower sym225  L68 ))
(assert (toLower sym719  L100 ))
(assert (toLower "database"  L1 ))
(assert (toLower sym605  L33 ))
(assert (toLower sym489  L108 ))
(assert (toLower sym629  L21 ))
(assert (toLower sym215  L53 ))
(assert (toLower sym513  L41 ))
(assert (toLower sym185  L37 ))
(assert (toLower sym278  L104 ))
(assert (toLower "table"  L69 ))
(assert (toLower sym523  L25 ))
(assert (toLower sym469  L57 ))
(assert (toLower sym150  L13 ))
(assert (toLower sym293  L45 ))
(assert (toLower sym160  L29 ))
(assert (toLower sym675  L17 ))
(assert (toLower sym268  L49 ))
(assert (toLower sym499  L90 ))
(assert (toLower sym113  L0 ))
(assert (toLower sym619  L62 ))
(assert (toLower sym443  L94 ))
(assert (toLower sym175  L82 ))
(assert (toLower sym585  L4 ))
(assert (toLower sym239  L70 ))
(assert (toLower sym665  L66 ))
(assert (toLower sym561  L98 ))
(assert (toLower sym20  L10 ))
(assert (toLower sym135  L86 ))
(assert (toLower sym327  L8 ))
(assert (toLower sym342  L74 ))
(assert (toLower sym403  L78 ))
(assert (toLower "description"  L18 ))
(assert (toLower sym547  L102 ))
(assert (toLower sym459  L51 ))
(assert (toLower "name"  L3 ))
(assert (toLower sym533  L55 ))
(assert (toLower sym479  L11 ))
(assert (toLower sym433  L43 ))
(assert (toLower sym705  L31 ))
(assert (toLower "type"  L7 ))
(assert (toLower sym685  L15 ))
(assert (toLower sym387  L47 ))
(assert (toLower sym313  L35 ))
(assert (toLower sym367  L106 ))
(assert (toLower sym352  L23 ))
(assert (toLower sym571  L19 ))
(assert (toLower sym377  L39 ))
(assert (toLower sym423  L27 ))

(assert (= L0 L1 ))
(assert (= L2 L3 ))
(assert (not (= L4 L3 )))
(assert (not (= L6 L7 )))
(assert (= L8 L3 ))
(assert (= L10 "html" ))
(assert (not (= L11 L7 )))
(assert (not (= L13 L3 )))
(assert (not (= L15 L7 )))
(assert (not (= L17 L18 )))
(assert (= L19 L18 ))
(assert (not (= L21 L18 )))
(assert (= L23 L18 ))
(assert (not (= L25 L18 )))
(assert (not (= L27 L7 )))
(assert (= L29 L18 ))
(assert (= L31 L32 ))
(assert (= L33 L7 ))
(assert (= L35 L36 ))
(assert (not (= L37 L18 )))
(assert (not (= L39 L18 )))
(assert (not (= L41 L3 )))
(assert (not (= L43 L44 )))
(assert (not (= L45 L3 )))
(assert (= L47 L7 ))
(assert (not (= L49 L3 )))
(assert (not (= L51 L3 )))
(assert (not (= L53 L18 )))
(assert (= L55 L36 ))
(assert (not (= L57 L18 )))
(assert (not (= L10 "sql" )))
(assert (not (= L60 L18 )))
(assert (not (= L62 L3 )))
(assert (not (= L64 L44 )))
(assert (not (= L66 L3 )))
(assert (= L68 L69 ))
(assert (= L70 L3 ))
(assert (not (= L72 L18 )))
(assert (not (= L74 L3 )))
(assert (not (= L76 L3 )))
(assert (not (= L78 L3 )))
(assert (not (= L80 L69 )))
(assert (not (= L82 L3 )))
(assert (= L84 L44 ))
(assert (= L86 L3 ))
(assert (not (= L88 L18 )))
(assert (= L90 L32 ))
(assert (not (= L92 L36 )))
(assert (= L94 L32 ))
(assert (not (= L96 L18 )))
(assert (not (= L98 L3 )))
(assert (not (= L100 L3 )))
(assert (= L102 L3 ))
(assert (= L104 L18 ))
(assert (not (= L106 L3 )))
(assert (not (= L108 L44 )))
(check-sat)
(get-model)
(exit)
